p tw 432 2080
1 33
2 34
3 35
4 36
5 37
6 38
7 39
8 40
9 41
10 42
11 43
12 44
13 45
14 46
15 47
16 48
17 49
18 50
19 51
20 52
21 53
22 54
23 55
24 56
25 57
26 58
27 59
28 60
29 61
30 62
31 63
32 64
33 71
33 72
33 73
33 74
33 75
33 76
34 143
34 152
34 159
34 167
34 171
34 173
35 78
35 82
35 93
35 94
35 95
35 96
36 97
36 106
36 112
36 113
36 114
36 115
37 74
37 86
37 129
37 136
37 162
37 165
38 66
38 88
38 112
38 126
38 127
38 128
39 84
39 99
39 118
39 138
39 140
39 141
40 68
40 108
40 135
40 142
40 143
40 144
41 65
41 66
41 67
41 68
41 69
41 70
42 100
42 110
42 126
42 162
42 163
42 164
43 109
43 142
43 145
43 148
43 149
43 150
44 77
44 88
44 89
44 90
44 91
44 92
45 133
45 148
45 151
45 154
45 155
45 156
46 93
46 116
46 122
46 123
46 124
46 125
47 67
47 98
47 102
47 129
47 130
47 131
48 75
48 120
48 130
48 160
48 174
48 176
49 116
49 117
49 118
49 119
49 120
49 121
50 65
50 77
50 78
50 79
50 80
50 81
51 83
51 113
51 117
51 132
51 133
51 134
52 94
52 107
52 122
52 135
52 136
52 137
53 73
53 89
53 103
53 132
53 138
53 139
54 69
54 127
54 155
54 163
54 174
54 175
55 154
55 157
55 158
55 159
55 160
55 161
56 106
56 107
56 108
56 109
56 110
56 111
57 82
57 83
57 84
57 85
57 86
57 87
58 104
58 119
58 123
58 151
58 152
58 153
59 114
59 146
59 158
59 166
59 169
59 170
60 80
60 85
60 90
60 145
60 146
60 147
61 72
61 79
61 102
61 103
61 104
61 105
62 71
62 97
62 98
62 99
62 100
62 101
63 91
63 149
63 157
63 166
63 167
63 168
64 95
64 124
64 140
64 169
64 171
64 172
65 66
65 67
65 68
65 69
65 70
65 77
65 78
65 79
65 80
65 81
66 67
66 68
66 69
66 70
66 88
66 112
66 126
66 127
66 128
67 68
67 69
67 70
67 98
67 102
67 129
67 130
67 131
68 69
68 70
68 108
68 135
68 142
68 143
68 144
69 70
69 127
69 155
69 163
69 174
69 175
70 177
70 178
70 179
70 180
70 181
70 182
71 72
71 73
71 74
71 75
71 76
71 97
71 98
71 99
71 100
71 101
72 73
72 74
72 75
72 76
72 79
72 102
72 103
72 104
72 105
73 74
73 75
73 76
73 89
73 103
73 132
73 138
73 139
74 75
74 76
74 86
74 129
74 136
74 162
74 165
75 76
75 120
75 130
75 160
75 174
75 176
76 183
76 184
76 185
76 186
76 187
76 188
77 78
77 79
77 80
77 81
77 88
77 89
77 90
77 91
77 92
78 79
78 80
78 81
78 82
78 93
78 94
78 95
78 96
79 80
79 81
79 102
79 103
79 104
79 105
80 81
80 85
80 90
80 145
80 146
80 147
81 177
81 189
81 190
81 191
81 192
81 193
82 83
82 84
82 85
82 86
82 87
82 93
82 94
82 95
82 96
83 84
83 85
83 86
83 87
83 113
83 117
83 132
83 133
83 134
84 85
84 86
84 87
84 99
84 118
84 138
84 140
84 141
85 86
85 87
85 90
85 145
85 146
85 147
86 87
86 129
86 136
86 162
86 165
87 194
87 195
87 196
87 197
87 198
87 199
88 89
88 90
88 91
88 92
88 112
88 126
88 127
88 128
89 90
89 91
89 92
89 103
89 132
89 138
89 139
90 91
90 92
90 145
90 146
90 147
91 92
91 149
91 157
91 166
91 167
91 168
92 189
92 200
92 201
92 202
92 203
92 204
93 94
93 95
93 96
93 116
93 122
93 123
93 124
93 125
94 95
94 96
94 107
94 122
94 135
94 136
94 137
95 96
95 124
95 140
95 169
95 171
95 172
96 190
96 194
96 205
96 206
96 207
96 208
97 98
97 99
97 100
97 101
97 106
97 112
97 113
97 114
97 115
98 99
98 100
98 101
98 102
98 129
98 130
98 131
99 100
99 101
99 118
99 138
99 140
99 141
100 101
100 110
100 126
100 162
100 163
100 164
101 183
101 209
101 210
101 211
101 212
101 213
102 103
102 104
102 105
102 129
102 130
102 131
103 104
103 105
103 132
103 138
103 139
104 105
104 119
104 123
104 151
104 152
104 153
105 184
105 191
105 214
105 215
105 216
105 217
106 107
106 108
106 109
106 110
106 111
106 112
106 113
106 114
106 115
107 108
107 109
107 110
107 111
107 122
107 135
107 136
107 137
108 109
108 110
108 111
108 135
108 142
108 143
108 144
109 110
109 111
109 142
109 145
109 148
109 149
109 150
110 111
110 126
110 162
110 163
110 164
111 218
111 219
111 220
111 221
111 222
111 223
112 113
112 114
112 115
112 126
112 127
112 128
113 114
113 115
113 117
113 132
113 133
113 134
114 115
114 146
114 158
114 166
114 169
114 170
115 209
115 218
115 224
115 225
115 226
115 227
116 117
116 118
116 119
116 120
116 121
116 122
116 123
116 124
116 125
117 118
117 119
117 120
117 121
117 132
117 133
117 134
118 119
118 120
118 121
118 138
118 140
118 141
119 120
119 121
119 123
119 151
119 152
119 153
120 121
120 130
120 160
120 174
120 176
121 228
121 229
121 230
121 231
121 232
121 233
122 123
122 124
122 125
122 135
122 136
122 137
123 124
123 125
123 151
123 152
123 153
124 125
124 140
124 169
124 171
124 172
125 205
125 228
125 234
125 235
125 236
125 237
126 127
126 128
126 162
126 163
126 164
127 128
127 155
127 163
127 174
127 175
128 178
128 200
128 224
128 238
128 239
128 240
129 130
129 131
129 136
129 162
129 165
130 131
130 160
130 174
130 176
131 179
131 210
131 214
131 241
131 242
131 243
132 133
132 134
132 138
132 139
133 134
133 148
133 151
133 154
133 155
133 156
134 195
134 225
134 229
134 244
134 245
134 246
135 136
135 137
135 142
135 143
135 144
136 137
136 162
136 165
137 206
137 219
137 234
137 247
137 248
137 249
138 139
138 140
138 141
139 185
139 201
139 215
139 244
139 250
139 251
140 141
140 169
140 171
140 172
141 196
141 211
141 230
141 250
141 252
141 253
142 143
142 144
142 145
142 148
142 149
142 150
143 144
143 152
143 159
143 167
143 171
143 173
144 180
144 220
144 247
144 254
144 255
144 256
145 146
145 147
145 148
145 149
145 150
146 147
146 158
146 166
146 169
146 170
147 192
147 197
147 202
147 257
147 258
147 259
148 149
148 150
148 151
148 154
148 155
148 156
149 150
149 157
149 166
149 167
149 168
150 221
150 254
150 257
150 260
150 261
150 262
151 152
151 153
151 154
151 155
151 156
152 153
152 159
152 167
152 171
152 173
153 216
153 231
153 235
153 263
153 264
153 265
154 155
154 156
154 157
154 158
154 159
154 160
154 161
155 156
155 163
155 174
155 175
156 245
156 260
156 263
156 266
156 267
156 268
157 158
157 159
157 160
157 161
157 166
157 167
157 168
158 159
158 160
158 161
158 166
158 169
158 170
159 160
159 161
159 167
159 171
159 173
160 161
160 174
160 176
161 266
161 269
161 270
161 271
161 272
161 273
162 163
162 164
162 165
163 164
163 174
163 175
164 212
164 222
164 238
164 274
164 275
164 276
165 186
165 198
165 241
165 248
165 274
165 277
166 167
166 168
166 169
166 170
167 168
167 171
167 173
168 203
168 261
168 269
168 278
168 279
168 280
169 170
169 171
169 172
170 226
170 258
170 270
170 278
170 281
170 282
171 172
171 173
172 207
172 236
172 252
172 281
172 283
172 284
173 255
173 264
173 271
173 279
173 283
173 285
174 175
174 176
175 181
175 239
175 267
175 275
175 286
175 287
176 187
176 232
176 242
176 272
176 286
176 288
177 178
177 179
177 180
177 181
177 182
177 189
177 190
177 191
177 192
177 193
178 179
178 180
178 181
178 182
178 200
178 224
178 238
178 239
178 240
179 180
179 181
179 182
179 210
179 214
179 241
179 242
179 243
180 181
180 182
180 220
180 247
180 254
180 255
180 256
181 182
181 239
181 267
181 275
181 286
181 287
182 289
182 290
182 291
182 292
182 293
182 294
183 184
183 185
183 186
183 187
183 188
183 209
183 210
183 211
183 212
183 213
184 185
184 186
184 187
184 188
184 191
184 214
184 215
184 216
184 217
185 186
185 187
185 188
185 201
185 215
185 244
185 250
185 251
186 187
186 188
186 198
186 241
186 248
186 274
186 277
187 188
187 232
187 242
187 272
187 286
187 288
188 295
188 296
188 297
188 298
188 299
188 300
189 190
189 191
189 192
189 193
189 200
189 201
189 202
189 203
189 204
190 191
190 192
190 193
190 194
190 205
190 206
190 207
190 208
191 192
191 193
191 214
191 215
191 216
191 217
192 193
192 197
192 202
192 257
192 258
192 259
193 289
193 301
193 302
193 303
193 304
193 305
194 195
194 196
194 197
194 198
194 199
194 205
194 206
194 207
194 208
195 196
195 197
195 198
195 199
195 225
195 229
195 244
195 245
195 246
196 197
196 198
196 199
196 211
196 230
196 250
196 252
196 253
197 198
197 199
197 202
197 257
197 258
197 259
198 199
198 241
198 248
198 274
198 277
199 306
199 307
199 308
199 309
199 310
199 311
200 201
200 202
200 203
200 204
200 224
200 238
200 239
200 240
201 202
201 203
201 204
201 215
201 244
201 250
201 251
202 203
202 204
202 257
202 258
202 259
203 204
203 261
203 269
203 278
203 279
203 280
204 301
204 312
204 313
204 314
204 315
204 316
205 206
205 207
205 208
205 228
205 234
205 235
205 236
205 237
206 207
206 208
206 219
206 234
206 247
206 248
206 249
207 208
207 236
207 252
207 281
207 283
207 284
208 302
208 306
208 317
208 318
208 319
208 320
209 210
209 211
209 212
209 213
209 218
209 224
209 225
209 226
209 227
210 211
210 212
210 213
210 214
210 241
210 242
210 243
211 212
211 213
211 230
211 250
211 252
211 253
212 213
212 222
212 238
212 274
212 275
212 276
213 295
213 321
213 322
213 323
213 324
213 325
214 215
214 216
214 217
214 241
214 242
214 243
215 216
215 217
215 244
215 250
215 251
216 217
216 231
216 235
216 263
216 264
216 265
217 296
217 303
217 326
217 327
217 328
217 329
218 219
218 220
218 221
218 222
218 223
218 224
218 225
218 226
218 227
219 220
219 221
219 222
219 223
219 234
219 247
219 248
219 249
220 221
220 222
220 223
220 247
220 254
220 255
220 256
221 222
221 223
221 254
221 257
221 260
221 261
221 262
222 223
222 238
222 274
222 275
222 276
223 330
223 331
223 332
223 333
223 334
223 335
224 225
224 226
224 227
224 238
224 239
224 240
225 226
225 227
225 229
225 244
225 245
225 246
226 227
226 258
226 270
226 278
226 281
226 282
227 321
227 330
227 336
227 337
227 338
227 339
228 229
228 230
228 231
228 232
228 233
228 234
228 235
228 236
228 237
229 230
229 231
229 232
229 233
229 244
229 245
229 246
230 231
230 232
230 233
230 250
230 252
230 253
231 232
231 233
231 235
231 263
231 264
231 265
232 233
232 242
232 272
232 286
232 288
233 340
233 341
233 342
233 343
233 344
233 345
234 235
234 236
234 237
234 247
234 248
234 249
235 236
235 237
235 263
235 264
235 265
236 237
236 252
236 281
236 283
236 284
237 317
237 340
237 346
237 347
237 348
237 349
238 239
238 240
238 274
238 275
238 276
239 240
239 267
239 275
239 286
239 287
240 290
240 312
240 336
240 350
240 351
240 352
241 242
241 243
241 248
241 274
241 277
242 243
242 272
242 286
242 288
243 291
243 322
243 326
243 353
243 354
243 355
244 245
244 246
244 250
244 251
245 246
245 260
245 263
245 266
245 267
245 268
246 307
246 337
246 341
246 356
246 357
246 358
247 248
247 249
247 254
247 255
247 256
248 249
248 274
248 277
249 318
249 331
249 346
249 359
249 360
249 361
250 251
250 252
250 253
251 297
251 313
251 327
251 356
251 362
251 363
252 253
252 281
252 283
252 284
253 308
253 323
253 342
253 362
253 364
253 365
254 255
254 256
254 257
254 260
254 261
254 262
255 256
255 264
255 271
255 279
255 283
255 285
256 292
256 332
256 359
256 366
256 367
256 368
257 258
257 259
257 260
257 261
257 262
258 259
258 270
258 278
258 281
258 282
259 304
259 309
259 314
259 369
259 370
259 371
260 261
260 262
260 263
260 266
260 267
260 268
261 262
261 269
261 278
261 279
261 280
262 333
262 366
262 369
262 372
262 373
262 374
263 264
263 265
263 266
263 267
263 268
264 265
264 271
264 279
264 283
264 285
265 328
265 343
265 347
265 375
265 376
265 377
266 267
266 268
266 269
266 270
266 271
266 272
266 273
267 268
267 275
267 286
267 287
268 357
268 372
268 375
268 378
268 379
268 380
269 270
269 271
269 272
269 273
269 278
269 279
269 280
270 271
270 272
270 273
270 278
270 281
270 282
271 272
271 273
271 279
271 283
271 285
272 273
272 286
272 288
273 378
273 381
273 382
273 383
273 384
273 385
274 275
274 276
274 277
275 276
275 286
275 287
276 324
276 334
276 350
276 386
276 387
276 388
277 298
277 310
277 353
277 360
277 386
277 389
278 279
278 280
278 281
278 282
279 280
279 283
279 285
280 315
280 373
280 381
280 390
280 391
280 392
281 282
281 283
281 284
282 338
282 370
282 382
282 390
282 393
282 394
283 284
283 285
284 319
284 348
284 364
284 393
284 395
284 396
285 367
285 376
285 383
285 391
285 395
285 397
286 287
286 288
287 293
287 351
287 379
287 387
287 398
287 399
288 299
288 344
288 354
288 384
288 398
288 400
289 290
289 291
289 292
289 293
289 294
289 301
289 302
289 303
289 304
289 305
290 291
290 292
290 293
290 294
290 312
290 336
290 350
290 351
290 352
291 292
291 293
291 294
291 322
291 326
291 353
291 354
291 355
292 293
292 294
292 332
292 359
292 366
292 367
292 368
293 294
293 351
293 379
293 387
293 398
293 399
294 424
295 296
295 297
295 298
295 299
295 300
295 321
295 322
295 323
295 324
295 325
296 297
296 298
296 299
296 300
296 303
296 326
296 327
296 328
296 329
297 298
297 299
297 300
297 313
297 327
297 356
297 362
297 363
298 299
298 300
298 310
298 353
298 360
298 386
298 389
299 300
299 344
299 354
299 384
299 398
299 400
300 432
301 302
301 303
301 304
301 305
301 312
301 313
301 314
301 315
301 316
302 303
302 304
302 305
302 306
302 317
302 318
302 319
302 320
303 304
303 305
303 326
303 327
303 328
303 329
304 305
304 309
304 314
304 369
304 370
304 371
305 415
306 307
306 308
306 309
306 310
306 311
306 317
306 318
306 319
306 320
307 308
307 309
307 310
307 311
307 337
307 341
307 356
307 357
307 358
308 309
308 310
308 311
308 323
308 342
308 362
308 364
308 365
309 310
309 311
309 314
309 369
309 370
309 371
310 311
310 353
310 360
310 386
310 389
311 408
312 313
312 314
312 315
312 316
312 336
312 350
312 351
312 352
313 314
313 315
313 316
313 327
313 356
313 362
313 363
314 315
314 316
314 369
314 370
314 371
315 316
315 373
315 381
315 390
315 391
315 392
316 421
317 318
317 319
317 320
317 340
317 346
317 347
317 348
317 349
318 319
318 320
318 331
318 346
318 359
318 360
318 361
319 320
319 348
319 364
319 393
319 395
319 396
320 430
321 322
321 323
321 324
321 325
321 330
321 336
321 337
321 338
321 339
322 323
322 324
322 325
322 326
322 353
322 354
322 355
323 324
323 325
323 342
323 362
323 364
323 365
324 325
324 334
324 350
324 386
324 387
324 388
325 403
326 327
326 328
326 329
326 353
326 354
326 355
327 328
327 329
327 356
327 362
327 363
328 329
328 343
328 347
328 375
328 376
328 377
329 404
330 331
330 332
330 333
330 334
330 335
330 336
330 337
330 338
330 339
331 332
331 333
331 334
331 335
331 346
331 359
331 360
331 361
332 333
332 334
332 335
332 359
332 366
332 367
332 368
333 334
333 335
333 366
333 369
333 372
333 373
333 374
334 335
334 350
334 386
334 387
334 388
335 409
336 337
336 338
336 339
336 350
336 351
336 352
337 338
337 339
337 341
337 356
337 357
337 358
338 339
338 370
338 382
338 390
338 393
338 394
339 429
340 341
340 342
340 343
340 344
340 345
340 346
340 347
340 348
340 349
341 342
341 343
341 344
341 345
341 356
341 357
341 358
342 343
342 344
342 345
342 362
342 364
342 365
343 344
343 345
343 347
343 375
343 376
343 377
344 345
344 354
344 384
344 398
344 400
345 416
346 347
346 348
346 349
346 359
346 360
346 361
347 348
347 349
347 375
347 376
347 377
348 349
348 364
348 393
348 395
348 396
349 419
350 351
350 352
350 386
350 387
350 388
351 352
351 379
351 387
351 398
351 399
352 427
353 354
353 355
353 360
353 386
353 389
354 355
354 384
354 398
354 400
355 418
356 357
356 358
356 362
356 363
357 358
357 372
357 375
357 378
357 379
357 380
358 414
359 360
359 361
359 366
359 367
359 368
360 361
360 386
360 389
361 413
362 363
362 364
362 365
363 412
364 365
364 393
364 395
364 396
365 426
366 367
366 368
366 369
366 372
366 373
366 374
367 368
367 376
367 383
367 391
367 395
367 397
368 425
369 370
369 371
369 372
369 373
369 374
370 371
370 382
370 390
370 393
370 394
371 405
372 373
372 374
372 375
372 378
372 379
372 380
373 374
373 381
373 390
373 391
373 392
374 422
375 376
375 377
375 378
375 379
375 380
376 377
376 383
376 391
376 395
376 397
377 407
378 379
378 380
378 381
378 382
378 383
378 384
378 385
379 380
379 387
379 398
379 399
380 420
381 382
381 383
381 384
381 385
381 390
381 391
381 392
382 383
382 384
382 385
382 390
382 393
382 394
383 384
383 385
383 391
383 395
383 397
384 385
384 398
384 400
385 410
386 387
386 388
386 389
387 388
387 398
387 399
388 423
389 428
390 391
390 392
390 393
390 394
391 392
391 395
391 397
392 402
393 394
393 395
393 396
394 406
395 396
395 397
396 401
397 431
398 399
398 400
399 411
400 417
